
Gurobi 9.1.2 (win64, Java) logging started Sat Nov 13 13:35:16 2021

Academic license - for non-commercial use only - expires 2022-10-30
Gurobi Optimizer version 9.1.2 build v9.1.2rc0 (win64)
Thread count: 6 physical cores, 12 logical processors, using up to 12 threads
Optimize a model with 30 rows, 200 columns and 400 nonzeros
Model fingerprint: 0x036814dd
Variable types: 0 continuous, 200 integer (200 binary)
Coefficient statistics:
  Matrix range     [1e+00, 9e+02]
  Objective range  [5e+02, 1e+03]
  Bounds range     [1e+00, 1e+00]
  RHS range        [1e+00, 1e+03]
Found heuristic solution: objective 7882.0000000
Presolve removed 10 rows and 121 columns
Presolve time: 0.00s
Presolved: 20 rows, 79 columns, 152 nonzeros
Found heuristic solution: objective 9353.0000000
Variable types: 0 continuous, 79 integer (79 binary)
Presolved: 20 rows, 79 columns, 152 nonzeros


Root relaxation: objective 1.020804e+04, 43 iterations, 0.00 seconds

    Nodes    |    Current Node    |     Objective Bounds      |     Work
 Expl Unexpl |  Obj  Depth IntInf | Incumbent    BestBd   Gap | It/Node Time

     0     0 10208.0358    0    6 9353.00000 10208.0358  9.14%     -    0s
H    0     0                    9765.0000000 10208.0358  4.54%     -    0s
     0     0 10170.4335    0   10 9765.00000 10170.4335  4.15%     -    0s
H    0     0                    9861.0000000 10170.4335  3.14%     -    0s
     0     0 9883.19592    0    5 9861.00000 9883.19592  0.23%     -    0s
     0     0 9876.87055    0   14 9861.00000 9876.87055  0.16%     -    0s
     0     0 9876.87055    0    5 9861.00000 9876.87055  0.16%     -    0s
H    0     0                    9874.0000000 9876.87055  0.03%     -    0s

Cutting planes:
  Gomory: 2
  Cover: 2
  MIR: 1

Explored 1 nodes (135 simplex iterations) in 0.03 seconds
Thread count was 12 (of 12 available processors)

Solution count 5: 9874 9861 9765 ... 7882

Optimal solution found (tolerance 1.00e-12)
Best objective 9.874000000000e+03, best bound 9.874000000000e+03, gap 0.0000%
